Route #1: 25 36 32 6 28 18 24 58 10
Route #2: 19 50 40 55 38 53 63
Route #3: 2 22 49 51 4 60
Route #4: 33 5 14 62 54 13 46 43 15
Route #5: 26 52 20 61 57 17 56
Route #6: 37 41 8 12 45 34 44
Route #7: 1 16 21 30 59 48 9 47 35
Route #8: 29 67 42 3 11 23 39
Route #9: 31 27 65 66 7 64
cost 1442.814697265625